p cnf 25 100
-1 -2 13 0
1 3 -21 0
1 4 -6 0
1 5 -9 0
8 1 -7 0
1 -10 18 0
-1 -11 -22 0
1 -12 17 0
-1 14 -25 0
1 -23 -15 0
16 1 19 0
24 1 20 0
-2 3 22 0
-2 4 -23 0
2 21 -5 0
17 -2 -6 0
-2 20 7 0
8 -2 14 0
-9 -2 -15 0
16 2 -10 0
-18 -2 11 0
-24 -2 12 0
25 -2 -19 0
-25 -3 4 0
-10 3 -5 0
11 -3 6 0
-17 -3 7 0
-8 16 -3 0
-9 -3 13 0
3 12 14 0
-19 3 -15 0
-24 18 3 0
-3 -20 23 0
4 5 7 0
8 -4 21 0
-16 9 4 0
-10 4 -12 0
-11 4 -13 0
19 -4 14 0
18 -4 -15 0
24 17 -4 0
4 20 22 0
-16 5 6 0
8 -12 -5 0
-11 -5 15 0
25 13 -5 0
18 -5 14 0
-17 5 22 0
-19 -20 5 0
-24 5 23 0
-14 6 7 0
8 20 6 0
24 -9 -6 0
10 -6 -22 0
12 13 -6 0
-25 6 15 0
-18 -21 6 0
-19 -6 -23 0
-9 11 -7 0
-10 -23 -7 0
-19 -12 -7 0
-24 13 7 0
15 21 7 0
-16 -25 -7 0
18 -22 7 0
8 -9 10 0
8 -11 23 0
8 17 13 0
-8 -24 15 0
-8 -18 -19 0
8 25 22 0
9 -12 -22 0
-9 -20 -14 0
9 19 17 0
-9 18 23 0
9 -21 25 0
19 10 11 0
10 -13 14 0
-17 -10 -15 0
-10 -20 -21 0
24 -25 10 0
-11 -12 21 0
17 -11 -14 0
16 -24 11 0
-25 -11 -20 0
16 12 15 0
-18 12 20 0
25 12 23 0
20 13 15 0
-16 18 13 0
21 -19 -13 0
-13 22 23 0
-22 14 15 0
16 -14 -23 0
24 21 -14 0
-16 17 -20 0
16 21 -22 0
17 18 25 0
17 -21 -23 0
-24 -19 22 0
